40
    90     3    63    19    54    87    60    38    49    11    50    72    93    77     2    90    32    44    64    62    42    20    64    62    24    69     4    68    11     6    69    59    61     2    18    19    61    78    90    35
    10     6     2     2     7     7     6     2     4     5     3    10     2     2     1     7    10     6    10     5     8    10     3     6     1     4     7     5     4     2     3     5    10     8     3     4     2     7     7     6
  1077  2349   748  1107   612  1111  2393  2411   592   757  1063  1644  1522  1852  2348  1293  1657  1341   728  2475   668  1616  1020  1993  2345  1324  2337  1887   959   596  2234   725  1269  1468  1814  1230  1037  1569  2184  1571
